MLW02
Position Depot: Center
Horizon for Depot: Large
Position of customers: Mixt
Distribution of the demand: Medium
Width of time windows: Wide
Distribution of the service: Small

VEHICLE 
NUMBER 	 CAPACITY 
 14 	 	 146 
 
CUSTOMER
CUST NO. 	 XCOORD.  	 YCOORD. 	 DEMAND 	 READY TIME 	 DUE DATE 	 SERVICE TIME 
 0 	 	 500 	 	 500 	 	 0 	 	 0 	 	 3479 	 	 0 
  1 	 	 517 	 	 557 	 	 95 	 	 3169 	 	 3405 	 	 88 
  2 	 	 646 	 	 424 	 	 81 	 	 2442 	 	 2813 	 	 81 
  3 	 	 666 	 	 186 	 	 10 	 	 1258 	 	 1537 	 	 74 
  4 	 	 881 	 	 126 	 	 70 	 	 1873 	 	 2308 	 	 65 
  5 	 	 347 	 	 470 	 	 5 	 	 896 	 	 1210 	 	 94 
  6 	 	 922 	 	 614 	 	 87 	 	 2900 	 	 3112 	 	 94 
  7 	 	 227 	 	 751 	 	 64 	 	 413 	 	 815 	 	 96 
  8 	 	 816 	 	 24 	 	 8 	 	 1630 	 	 1968 	 	 77 
  9 	 	 300 	 	 387 	 	 9 	 	 741 	 	 1235 	 	 62 
  10 	 	 555 	 	 327 	 	 5 	 	 3044 	 	 3479 	 	 70 
  11 	 	 946 	 	 127 	 	 6 	 	 2514 	 	 2744 	 	 53 
  12 	 	 322 	 	 472 	 	 7 	 	 579 	 	 923 	 	 52 
  13 	 	 512 	 	 571 	 	 8 	 	 2815 	 	 3085 	 	 89 
  14 	 	 661 	 	 236 	 	 5 	 	 3000 	 	 3212 	 	 80 
  15 	 	 630 	 	 478 	 	 56 	 	 755 	 	 1122 	 	 81 
  16 	 	 835 	 	 585 	 	 2 	 	 1181 	 	 1643 	 	 76 
  17 	 	 573 	 	 421 	 	 4 	 	 1419 	 	 1806 	 	 61 
  18 	 	 170 	 	 760 	 	 2 	 	 1064 	 	 1331 	 	 99 
  19 	 	 589 	 	 422 	 	 1 	 	 1758 	 	 2212 	 	 64 
  20 	 	 715 	 	 173 	 	 5 	 	 2381 	 	 2581 	 	 62 
  21 	 	 249 	 	 752 	 	 9 	 	 423 	 	 885 	 	 76 
  22 	 	 716 	 	 450 	 	 7 	 	 129 	 	 485 	 	 99 
  23 	 	 380 	 	 478 	 	 7 	 	 2213 	 	 2600 	 	 73 
  24 	 	 420 	 	 545 	 	 9 	 	 1000 	 	 1210 	 	 77 
  25 	 	 316 	 	 456 	 	 80 	 	 1146 	 	 1349 	 	 79 
  26 	 	 717 	 	 154 	 	 10 	 	 509 	 	 944 	 	 66 
  27 	 	 957 	 	 81 	 	 8 	 	 2263 	 	 2517 	 	 72 
  28 	 	 922 	 	 6 	 	 2 	 	 3158 	 	 3479 	 	 99 
  29 	 	 960 	 	 652 	 	 78 	 	 968 	 	 1332 	 	 64 
  30 	 	 771 	 	 437 	 	 10 	 	 2290 	 	 2612 	 	 81 
  31 	 	 477 	 	 453 	 	 1 	 	 73 	 	 307 	 	 97 
  32 	 	 835 	 	 30 	 	 9 	 	 1672 	 	 2104 	 	 84 
  33 	 	 885 	 	 554 	 	 67 	 	 1640 	 	 1988 	 	 54 
  34 	 	 698 	 	 117 	 	 6 	 	 2825 	 	 3085 	 	 82 
  35 	 	 610 	 	 603 	 	 83 	 	 260 	 	 727 	 	 64 
  36 	 	 644 	 	 502 	 	 1 	 	 808 	 	 1273 	 	 56 
  37 	 	 625 	 	 508 	 	 2 	 	 1524 	 	 1858 	 	 58 
  38 	 	 655 	 	 339 	 	 5 	 	 3076 	 	 3479 	 	 100 
  39 	 	 769 	 	 9 	 	 4 	 	 870 	 	 1124 	 	 90 
  40 	 	 651 	 	 312 	 	 92 	 	 2693 	 	 3186 	 	 60 
  41 	 	 495 	 	 541 	 	 2 	 	 1331 	 	 1572 	 	 99 
  42 	 	 977 	 	 353 	 	 92 	 	 2688 	 	 3108 	 	 96 
  43 	 	 793 	 	 61 	 	 8 	 	 2896 	 	 3241 	 	 65 
  44 	 	 223 	 	 771 	 	 6 	 	 2016 	 	 2347 	 	 96 
  45 	 	 732 	 	 234 	 	 4 	 	 2182 	 	 2592 	 	 80 
  46 	 	 995 	 	 156 	 	 9 	 	 3047 	 	 3319 	 	 85 
  47 	 	 322 	 	 493 	 	 55 	 	 3132 	 	 3479 	 	 78 
  48 	 	 722 	 	 85 	 	 10 	 	 3149 	 	 3479 	 	 93 
  49 	 	 193 	 	 709 	 	 4 	 	 824 	 	 1286 	 	 68 
  50 	 	 876 	 	 133 	 	 5 	 	 502 	 	 788 	 	 71 
  51 	 	 825 	 	 835 	 	 8 	 	 3082 	 	 3348 	 	 51 
  52 	 	 869 	 	 196 	 	 4 	 	 1039 	 	 1478 	 	 87 
  53 	 	 475 	 	 120 	 	 97 	 	 1366 	 	 1621 	 	 79 
  54 	 	 149 	 	 281 	 	 3 	 	 1053 	 	 1278 	 	 66 
  55 	 	 336 	 	 426 	 	 93 	 	 3065 	 	 3325 	 	 50 
  56 	 	 961 	 	 798 	 	 10 	 	 3021 	 	 3479 	 	 79 
  57 	 	 985 	 	 754 	 	 4 	 	 1791 	 	 2153 	 	 94 
  58 	 	 82 	 	 827 	 	 2 	 	 1218 	 	 1469 	 	 74 
  59 	 	 654 	 	 731 	 	 8 	 	 3240 	 	 3474 	 	 72 
  60 	 	 844 	 	 783 	 	 2 	 	 2116 	 	 2361 	 	 96 
  61 	 	 179 	 	 788 	 	 95 	 	 240 	 	 665 	 	 88 
  62 	 	 833 	 	 383 	 	 8 	 	 1907 	 	 2142 	 	 90 
  63 	 	 416 	 	 182 	 	 1 	 	 699 	 	 999 	 	 79 
  64 	 	 125 	 	 697 	 	 2 	 	 707 	 	 927 	 	 58 
  65 	 	 772 	 	 864 	 	 1 	 	 874 	 	 1253 	 	 78 
  66 	 	 565 	 	 97 	 	 6 	 	 347 	 	 589 	 	 86 
  67 	 	 185 	 	 647 	 	 6 	 	 710 	 	 950 	 	 88 
  68 	 	 298 	 	 923 	 	 7 	 	 1071 	 	 1422 	 	 82 
  69 	 	 546 	 	 681 	 	 8 	 	 1594 	 	 2075 	 	 89 
  70 	 	 956 	 	 131 	 	 7 	 	 1625 	 	 2079 	 	 93 
  71 	 	 692 	 	 575 	 	 53 	 	 1202 	 	 1699 	 	 99 
  72 	 	 131 	 	 62 	 	 10 	 	 608 	 	 1014 	 	 81 
  73 	 	 338 	 	 956 	 	 9 	 	 1802 	 	 2255 	 	 76 
  74 	 	 284 	 	 977 	 	 5 	 	 2669 	 	 3069 	 	 53 
  75 	 	 646 	 	 339 	 	 79 	 	 1695 	 	 2064 	 	 93 
  76 	 	 115 	 	 331 	 	 9 	 	 3 	 	 462 	 	 77 
  77 	 	 333 	 	 62 	 	 4 	 	 786 	 	 1088 	 	 53 
  78 	 	 517 	 	 731 	 	 8 	 	 2067 	 	 2488 	 	 88 
  79 	 	 843 	 	 848 	 	 10 	 	 220 	 	 537 	 	 65 
  80 	 	 190 	 	 184 	 	 4 	 	 1790 	 	 2248 	 	 75 
  81 	 	 784 	 	 280 	 	 74 	 	 2476 	 	 2837 	 	 62 
  82 	 	 267 	 	 533 	 	 1 	 	 290 	 	 721 	 	 87 
  83 	 	 201 	 	 377 	 	 2 	 	 562 	 	 871 	 	 85 
  84 	 	 963 	 	 478 	 	 9 	 	 220 	 	 509 	 	 89 
  85 	 	 285 	 	 807 	 	 8 	 	 2234 	 	 2582 	 	 97 
  86 	 	 777 	 	 772 	 	 5 	 	 2646 	 	 2995 	 	 74 
  87 	 	 130 	 	 419 	 	 68 	 	 503 	 	 1000 	 	 93 
  88 	 	 258 	 	 217 	 	 8 	 	 1230 	 	 1443 	 	 80 
  89 	 	 581 	 	 354 	 	 2 	 	 1932 	 	 2348 	 	 61 
  90 	 	 694 	 	 417 	 	 66 	 	 1881 	 	 2259 	 	 75 
  91 	 	 187 	 	 911 	 	 5 	 	 164 	 	 568 	 	 65 
  92 	 	 774 	 	 251 	 	 3 	 	 1717 	 	 2083 	 	 77 
  93 	 	 720 	 	 984 	 	 10 	 	 1740 	 	 2055 	 	 100 
  94 	 	 770 	 	 199 	 	 1 	 	 140 	 	 444 	 	 74 
  95 	 	 944 	 	 717 	 	 8 	 	 183 	 	 543 	 	 91 
  96 	 	 21 	 	 410 	 	 7 	 	 998 	 	 1478 	 	 52 
  97 	 	 901 	 	 976 	 	 10 	 	 1038 	 	 1468 	 	 85 
  98 	 	 828 	 	 927 	 	 4 	 	 2571 	 	 2824 	 	 50 
  99 	 	 310 	 	 782 	 	 8 	 	 2798 	 	 3200 	 	 65 
  100 	 	 49 	 	 514 	 	 6 	 	 290 	 	 722 	 	 64 
 